************************************************************************
file with basedata            : me13_.bas
initial value random generator: 658346384
************************************************************************
projects                      :  1
jobs (incl. supersource/sink ):  14
horizon                       :  101
RESOURCES
  - renewable                 :  2   R
  - nonrenewable              :  0   N
  - doubly constrained        :  0   D
************************************************************************
PROJECT INFORMATION:
pronr.  #jobs rel.date duedate tardcost  MPM-Time
    1     12      0       14        7       14
************************************************************************
PRECEDENCE RELATIONS:
jobnr.    #modes  #successors   successors
   1        1          3           2   3   4
   2        3          3           7   8   9
   3        3          3           6   7   8
   4        3          3           5   6  12
   5        3          3           8  10  11
   6        3          1           9
   7        3          3          11  12  13
   8        3          1          13
   9        3          2          10  11
  10        3          1          13
  11        3          1          14
  12        3          1          14
  13        3          1          14
  14        1          0        
************************************************************************
REQUESTS/DURATIONS:
jobnr. mode duration  R 1  R 2
------------------------------------------------------------------------
  1      1     0       0    0
  2      1     2       8    5
         2     5       6    4
         3     6       4    2
  3      1     4       5    9
         2     9       4    8
         3    10       3    3
  4      1     1      10    7
         2     2       7    5
         3     9       6    2
  5      1     4       5    7
         2     7       4    6
         3     9       2    5
  6      1     4       2    6
         2     7       2    3
         3     9       1    2
  7      1     3       5    8
         2     4       4    3
         3     4       2    6
  8      1     4       6    8
         2     4       5    9
         3    10       2    6
  9      1     3       6   10
         2     6       5    9
         3     9       5    7
 10      1     1       7    5
         2     1       8    4
         3     9       6    2
 11      1     3      10    9
         2     8       8    9
         3     9       7    8
 12      1     5       9    8
         2     9       8    4
         3    10       6    2
 13      1     1       2    5
         2     3       2    3
         3     7       1    1
 14      1     0       0    0
************************************************************************
RESOURCEAVAILABILITIES:
  R 1  R 2
   12   13
************************************************************************
